20
11	335	140	20	97
9	315	87	54	49
10	460	200	36	43
23	501	41	47	14
20	444	387	16	59
36	319	414	78	59
27	157	305	50	31
44	361	280	51	10
15	504	150	25	42
48	394	55	3	17
36	19	365	84	18
33	247	420	43	99
36	48	216	67	83
39	277	154	8	94
33	499	415	70	3
39	289	387	12	12
37	237	313	87	44
14	279	259	95	83
27	438	324	66	13
25	202	187	73	6
